solving instance uflp nldep gunluk ../../../../../instances/uflp/gunluk/gunluk-50-100-10.txt exp
Set parameter TokenServer to value "licences.gerad.lan"
Set parameter MIPGap to value 1e-06
Set parameter FuncPieceError to value 1e-06
Set parameter Threads to value 1
Set parameter FuncPieces to value -2
Set parameter TimeLimit to value 3600
Gurobi Optimizer version 12.0.2 build v12.0.2rc0 (linux64 - "AlmaLinux 9.6 (Sage Margay)")

CPU model: Intel(R) Xeon(R) Gold 6258R CPU @ 2.70GHz, instruction set [SSE2|AVX|AVX2|AVX512]
Thread count: 56 physical cores, 56 logical processors, using up to 1 threads

Non-default parameters:
TimeLimit  3600
MIPGap  1e-06
Threads  1
FuncPieces  -2
FuncPieceError  1e-06

Optimize a model with 5300 rows, 5350 columns and 20400 nonzeros
Model fingerprint: 0xc8608783
Model has 100 function constraints treated as nonlinear
  50 EXP, 50 POW
Variable types: 5300 continuous, 50 integer (50 binary)
Coefficient statistics:
  Matrix range     [2e-03, 2e+03]
  Objective range  [6e-01, 6e+01]
  Bounds range     [1e+00, 1e+10]
  RHS range        [2e-04, 1e+00]
Warning: Model contains large bounds
         Consider reformulating model or setting NumericFocus parameter
         to avoid numerical issues.
Warning: 0 <= x < 1e-10 in domain of pow(x,a) with a=-1.000.
         Setting lower bound to 1e-10.
Presolve removed 100 rows and 100 columns
Presolve time: 0.03s
Presolved: 5650 rows, 5251 columns, 21050 nonzeros
Presolved model has 50 bilinear constraint(s)
Presolved model has 50 nonlinear constraint(s)

Solving non-convex MINLP

Variable types: 5201 continuous, 50 integer (50 binary)
Found heuristic solution: objective 2811.2666637

Root relaxation: objective 7.220460e+02, 495 iterations, 0.01 seconds (0.01 work units)

    Nodes    |    Current Node    |     Objective Bounds      |     Work
 Expl Unexpl |  Obj  Depth IntInf | Incumbent    BestBd   Gap | It/Node Time

     0     0  722.04603    0   28 2811.26666  722.04603  74.3%     -    0s
     0     0  722.04603    0   28 2811.26666  722.04603  74.3%     -    0s
H    0     0                     722.1108544  722.04603  0.01%     -    0s
     0     0  722.10595    0   28  722.11085  722.10595  0.00%     -    0s

Explored 1 nodes (570 simplex iterations) in 0.25 seconds (0.16 work units)
Thread count was 1 (of 56 available processors)

Solution count 2: 722.111 2811.27 

Optimal solution found (tolerance 1.00e-06)
Best objective 7.221108544419e+02, best bound 7.221108498619e+02, gap 0.0000%

User-callback calls 426, time in user-callback 0.00 sec
Generating Gunluk and Lee data file ../../../../../instances/uflp/gunluk/gunluk-50-100-10.txt
primal_bound = 722.1108544418536, dual_bound = 722.1108498619382, gap = 6.342399347798953e-7, time = 0.26
OPTIMAL LOCATIONS:
y[1] = 1.0
y[2] = 1.0
y[8] = 1.0
y[15] = 1.0
y[17] = 1.0
y[23] = 1.0
y[25] = 1.0
y[26] = 1.0
y[34] = 1.0
y[38] = 1.0
y[39] = 1.0
y[42] = 1.0
y[48] = 1.0
y[49] = 1.0
OPTIMAL WAREHOUSING:
f[1] = 372.0
f[2] = 158.0
f[8] = 375.0
f[15] = 442.0
f[17] = 204.0
f[23] = 317.0
f[25] = 299.0
f[26] = 368.0
f[34] = 324.0
f[38] = 350.0
f[39] = 532.0
f[42] = 308.0
f[48] = 280.0
f[49] = 244.0
OPTIMAL WAREHOUSING COSTS:
nlobj[1] = 0.5005441939074
nlobj[2] = 8.005453788645367
nlobj[3] = 0.0
nlobj[4] = 0.0
nlobj[5] = 0.0
nlobj[6] = 0.0
nlobj[7] = 0.0
nlobj[8] = 2.0021910975221764
nlobj[9] = 0.0
nlobj[10] = 0.0
nlobj[11] = 0.0
nlobj[12] = 0.0
nlobj[13] = 0.0
nlobj[14] = 0.0
nlobj[15] = 0.5006341706004394
nlobj[16] = 0.0
nlobj[17] = 4.003015391660528
nlobj[18] = 0.0
nlobj[19] = 0.0
nlobj[20] = 0.0
nlobj[21] = 0.0
nlobj[22] = 0.0
nlobj[23] = 10.009650913571022
nlobj[24] = 0.0
nlobj[25] = 6.506031046909092
nlobj[26] = 8.509170757252223
nlobj[27] = 0.0
nlobj[28] = 0.0
nlobj[29] = 0.0
nlobj[30] = 0.0
nlobj[31] = 0.0
nlobj[32] = 0.0
nlobj[33] = 0.0
nlobj[34] = 14.013719622317453
nlobj[35] = 0.0
nlobj[36] = 0.0
nlobj[37] = 0.0
nlobj[38] = 6.006223706187483
nlobj[39] = 28.043234111807102
nlobj[40] = 0.0
nlobj[41] = 0.0
nlobj[42] = 5.004731446338134
nlobj[43] = 0.0
nlobj[44] = 0.0
nlobj[45] = 0.0
nlobj[46] = 0.0
nlobj[47] = 0.0
nlobj[48] = 16.514686712679147
nlobj[49] = 8.006581902709796
nlobj[50] = 0.0
OPTIMAL ASSIGNMENTS:
x[1, 27] = 1.0
x[1, 45] = 1.0
x[1, 46] = 1.0
x[1, 48] = 1.0
x[1, 68] = 1.0
x[1, 77] = 1.0
x[2, 15] = 1.0
x[2, 38] = 1.0
x[2, 61] = 1.0
x[2, 62] = 1.0
x[2, 75] = 1.0
x[2, 78] = 1.0
x[8, 7] = 1.0
x[8, 11] = 1.0
x[8, 26] = 1.0
x[8, 31] = 1.0
x[8, 40] = 1.0
x[8, 55] = 1.0
x[8, 74] = 1.0
x[8, 79] = 1.0
x[8, 85] = 1.0
x[8, 99] = 1.0
x[8, 100] = 1.0
x[15, 1] = 1.0
x[15, 12] = 1.0
x[15, 34] = 1.0
x[15, 44] = 1.0
x[15, 53] = 1.0
x[15, 86] = 1.0
x[15, 91] = 1.0
x[15, 95] = 1.0
x[17, 4] = 1.0
x[17, 6] = 1.0
x[17, 20] = 1.0
x[17, 37] = 1.0
x[17, 41] = 1.0
x[17, 93] = 1.0
x[23, 8] = 1.0
x[23, 13] = 1.0
x[23, 14] = 1.0
x[23, 17] = 1.0
x[23, 18] = 1.0
x[23, 66] = 1.0
x[23, 97] = 1.0
x[25, 5] = 1.0
x[25, 72] = 1.0
x[25, 83] = 1.0
x[25, 92] = 1.0
x[25, 96] = 1.0
x[26, 19] = 1.0
x[26, 22] = 1.0
x[26, 23] = 1.0
x[26, 25] = 1.0
x[26, 60] = 1.0
x[26, 71] = 1.0
x[26, 76] = 1.0
x[34, 2] = 1.0
x[34, 36] = 1.0
x[34, 43] = 1.0
x[34, 47] = 1.0
x[34, 51] = 1.0
x[34, 87] = 1.0
x[34, 89] = 1.0
x[34, 98] = 1.0
x[38, 10] = 1.0
x[38, 29] = 1.0
x[38, 58] = 1.0
x[38, 59] = 1.0
x[38, 63] = 1.0
x[38, 64] = 1.0
x[38, 67] = 1.0
x[39, 24] = 1.0
x[39, 28] = 1.0
x[39, 32] = 1.0
x[39, 33] = 1.0
x[39, 35] = 1.0
x[39, 39] = 1.0
x[39, 49] = 1.0
x[39, 50] = 1.0
x[39, 56] = 1.0
x[39, 65] = 1.0
x[39, 84] = 1.0
x[39, 90] = 1.0
x[39, 94] = 1.0
x[42, 9] = 1.0
x[42, 16] = 1.0
x[42, 21] = 1.0
x[42, 54] = 1.0
x[42, 57] = 1.0
x[42, 73] = 1.0
x[42, 88] = 1.0
x[48, 3] = 1.0
x[48, 52] = 1.0
x[48, 69] = 1.0
x[48, 82] = 1.0
x[49, 30] = 1.0
x[49, 42] = 1.0
x[49, 70] = 1.0
x[49, 80] = 1.0
x[49, 81] = 1.0
fixed costs = 235.0
assignment costs = 604.4849855797463
warehousing costs = 117.62586886210735
total cost = 722.1108544418537
